unknown
(model
; cardinality of BoundSet is 2
(declare-sort BoundSet 0)
; rep: @uc_BoundSet_0
; rep: @uc_BoundSet_1
; cardinality of UnboundSet is 1
(declare-sort UnboundSet 0)
(declare-fun groundTerm_3 () UnboundSet)
(define-fun IsYoungAdult ((BOUND_VARIABLE_416 BoundSet)) Bool true)
(define-fun HasX ((BOUND_VARIABLE_416 BoundSet)) Bool true)
(define-fun IsAdult ((BOUND_VARIABLE_416 BoundSet)) Bool false)
(define-fun IsCryingHysterically ((BOUND_VARIABLE_416 BoundSet)) Bool false)
)
sat
(model
; cardinality of BoundSet is 1
(declare-sort BoundSet 0)
; rep: @uc_BoundSet_0
; cardinality of UnboundSet is 1
(declare-sort UnboundSet 0)
(declare-fun groundTerm_6 () UnboundSet)
(define-fun IsYoungAdult ((BOUND_VARIABLE_457 BoundSet)) Bool true)
(define-fun HasX ((BOUND_VARIABLE_457 BoundSet)) Bool true)
(define-fun IsAdult ((BOUND_VARIABLE_457 BoundSet)) Bool true)
(define-fun IsCryingHysterically ((BOUND_VARIABLE_457 BoundSet)) Bool false)
)
